NAME : rnd24_50.tsp.tsp.optbc.tour
TYPE : TOUR
DIMENSION : 50
TOUR_SECTION
1
40
33
22
26
24
36
19
9
4
32
44
42
30
49
8
45
35
17
27
34
3
18
15
29
38
2
6
28
10
25
20
39
46
50
14
11
16
31
37
13
41
7
23
43
12
5
21
47
48
-1